c read Graph
c width = 307
c time = 397 ms
c width = 42
c time = 885 ms
c width = 41
c time = 1290 ms
c width = 38
c time = 1463 ms
c width = 37
c time = 1637 ms
c width = 36
c time = 1659 ms
c width = 35
c time = 1918 ms
c width = 34
c time = 6896 ms
c width = 33
c time = 12334 ms
c width = 32
c time = 18467 ms
c width = 31
c time = 28105 ms
c width = 30
c time = 54290 ms
c width = 29
c time = 61242 ms
c width = 28
c time = 114681 ms
c width = 28
c time = 119925 ms
s td 414 29 462
b 1 3 123 180 283
b 2 13 23 63 70 99 123 138 164 180 206 212 215 243 252 283 286 288 297 322 340 343 352 399 428 436 439 456
b 3 13 23 63 70 99 123 138 164 206 212 215 243 252 283 286 288 297 322 340 343 352 399 428 436 439 456
b 4 13 23 63 70 99 123 138 164 206 212 215 243 252 286 288 297 322 340 343 352 399 417 428 436 439 456
b 5 13 23 63 70 99 123 138 164 193 206 212 215 229 243 252 269 286 288 297 322 340 343 352 399 417 428 436 439 456
b 6 13 63 70 99 123 138 164 193 212 215 229 243 252 269 286 288 297 322 340 343 352 399 417 424 428 436 439 456
b 7 13 63 70 99 123 138 164 212 215 229 243 252 269 286 288 297 322 340 343 352 399 417 424 428 436 439 456
b 8 13 60 63 70 99 123 138 164 212 215 229 243 252 269 286 288 297 322 340 343 352 399 417 424 436 439 456
b 9 13 60 63 70 99 123 138 164 212 215 229 243 252 269 286 288 297 322 340 352 399 417 424 436 439 456
b 10 13 60 63 70 99 123 138 164 176 212 215 229 243 252 269 286 288 297 322 340 352 399 417 424 439 456
b 11 13 60 63 70 99 123 138 164 176 178 212 215 229 243 252 269 286 288 297 302 322 340 386 399 417 424 439 456
b 12 63 99 138 178 229 302 322 340 386 403
b 13 35 63 99 178 340 386 403
b 14 35 63 166 178 403
b 15 35 111 166 403
b 16 63 138 322 356 403
b 17 322 338 356 403
b 18 13 60 70 77 99 123 138 164 176 178 212 215 229 243 252 269 286 288 297 302 322 340 386 399 417 424 439 456
b 19 13 60 70 77 99 123 138 164 176 178 212 215 229 243 252 269 286 297 302 322 340 386 399 414 417 424 439 456
b 20 13 60 70 77 99 123 138 164 176 178 212 215 229 243 249 252 269 286 302 322 340 386 399 414 417 424 439 456
b 21 5 13 60 70 77 99 123 134 138 164 176 178 212 215 229 243 249 252 269 286 302 340 386 399 414 417 424 439 456
b 22 5 13 60 70 77 99 134 138 164 176 178 212 215 229 243 249 252 269 286 302 340 386 389 399 414 417 424 439 456
b 23 13 60 70 77 99 134 138 164 176 178 212 215 229 243 249 252 269 286 302 340 386 389 399 414 417 424 439 443 456
b 24 13 60 70 77 99 134 138 164 178 212 215 229 236 243 249 252 269 286 302 340 386 389 399 414 417 424 439 443 456
b 25 13 60 70 77 99 134 138 164 178 212 215 229 236 243 249 252 269 286 302 340 389 399 414 417 424 425 439 443 456
b 26 13 60 70 77 99 134 138 164 178 212 215 229 236 243 252 269 277 286 302 340 389 399 414 417 424 425 439 443 456
b 27 13 60 70 77 99 134 138 164 178 212 215 229 236 243 252 271 277 286 302 340 389 399 414 417 424 425 439 443 456
b 28 13 60 70 77 134 138 164 178 212 215 229 236 243 252 271 277 286 302 324 340 389 399 414 417 424 425 439 443 456
b 29 13 60 70 77 138 164 178 212 215 229 236 243 252 271 277 286 302 324 340 376 389 399 414 417 424 425 439 443 456
b 30 212 215 271 324 332
b 31 215 271 324 332
b 32 144 215 324 332
b 33 109 215 286 376
b 34 13 60 70 77 138 164 178 229 236 243 252 271 277 286 302 324 340 376 388 389 399 414 417 424 425 439 443 456
b 35 13 60 70 77 138 164 178 229 236 243 252 277 286 302 324 340 364 376 388 389 399 414 415 417 424 425 439 443 456
b 36 60 70 77 138 164 178 229 236 243 252 277 286 302 305 324 340 364 376 388 389 399 414 415 417 424 425 439 443 456
b 37 6 305 324 388
b 38 60 70 138 145 164 178 229 236 243 252 277 286 302 305 340 364 376 388 389 399 414 415 417 424 425 439 443 456
b 39 60 70 138 145 164 178 229 236 240 243 252 277 286 302 305 340 364 376 389 399 414 415 417 424 425 439 443 456
b 40 60 70 76 138 164 178 229 236 240 243 252 277 286 302 305 340 364 376 389 399 414 415 417 424 425 439 443 456
b 41 60 70 76 138 164 178 229 236 240 243 252 277 286 302 305 340 364 376 399 401 414 415 417 424 425 439 443 456
b 42 76 164 240 373 401
b 43 240 245 373 401
b 44 60 70 76 138 164 178 229 236 243 252 277 286 302 305 340 364 376 379 399 401 414 415 417 424 425 439 443 456
b 45 76 167 379 415
b 46 60 70 138 164 178 186 229 236 243 252 277 286 302 305 340 364 376 379 399 401 414 415 417 424 425 439 443 456
b 47 60 70 138 164 178 186 229 236 243 252 277 286 302 305 340 364 376 399 401 414 415 417 424 425 435 439 443 456
b 48 60 70 138 164 171 178 186 229 236 243 252 277 286 302 305 340 364 376 399 401 414 417 424 425 435 439 443 456
b 49 70 186 404 435
b 50 60 70 138 164 171 178 186 229 236 243 252 277 286 302 305 340 364 376 399 401 414 417 424 425 433 439 443 456
b 51 60 70 138 164 171 186 229 236 243 252 277 286 302 305 340 364 376 399 401 414 417 424 425 431 433 439 443 456
b 52 60 70 135 138 164 171 186 229 236 243 252 277 286 302 305 340 376 399 401 414 417 424 425 431 433 439 443 456
b 53 60 70 129 135 138 164 171 186 229 236 243 252 277 302 305 340 376 399 401 414 417 424 425 431 433 439 443 456
b 54 60 70 129 135 138 164 171 236 237 243 252 277 279 302 305 340 376 399 401 414 417 424 425 431 433 439 443 456
b 55 60 70 129 135 138 164 171 236 237 243 252 277 279 302 305 340 371 376 399 401 414 424 425 431 433 439 443 456
b 56 60 70 129 135 138 164 171 236 237 243 252 277 279 302 305 340 341 371 376 399 414 424 425 431 433 439 443 456
b 57 60 70 129 135 138 164 171 237 243 252 277 279 302 305 307 340 341 371 376 399 414 424 425 431 433 439 443 456
b 58 60 70 129 135 138 164 171 237 243 252 257 277 279 302 305 307 340 341 371 376 399 414 424 425 431 433 439 456
b 59 60 70 129 135 138 164 171 237 242 243 252 257 277 279 302 305 307 340 341 371 376 414 424 425 431 433 439 456
b 60 60 70 129 135 138 164 171 221 237 242 243 252 257 277 279 302 305 307 340 341 371 376 414 424 425 431 433 456
b 61 60 70 129 135 138 164 171 221 225 237 242 243 252 257 277 279 302 305 307 340 341 371 376 414 425 431 433 456
b 62 13 77 229 236 277 364 424 457
b 63 229 364 405 424 457
b 64 229 364 405 411
b 65 77 277 313 364 457
b 66 83 277 313 364
b 67 195 236 249 386
b 68 84 176 386 389 443
b 69 5 134 312 389 414
b 70 134 196 312 414
b 71 5 13 77 123 134 176 348 414
b 72 5 77 123 134 204 348 414
b 73 77 125 134 204 348 414
b 74 24 123 134 204
b 75 17 23 206 229 269 417 428 436
b 76 17 23 206 369 417
b 77 23 44 369 417
b 78 17 229 269 367 417
b 79 17 269 336 367
b 80 18 23 193 288
b 81 13 23 59 63 70 99 138 164 180 206 212 215 243 252 283 286 288 297 322 340 343 352 399 428 436 439 456
b 82 23 59 63 70 99 130 138 164 180 206 212 215 232 243 252 286 288 297 303 322 340 343 399 428 436 439 456
b 83 23 59 63 70 99 130 138 164 180 206 212 215 232 238 243 252 286 288 297 303 322 340 399 428 436 439 456 462
b 84 23 59 63 70 99 130 138 164 180 206 212 215 232 238 243 252 286 288 297 303 322 340 344 399 419 428 439 456 462
b 85 23 59 63 70 99 120 130 138 179 212 215 232 238 243 252 276 286 288 297 303 322 340 344 399 419 439 449 456 462
b 86 23 59 63 70 99 120 130 138 179 190 212 232 238 243 252 276 286 288 297 303 322 340 344 399 419 439 449 456 462
b 87 23 63 70 99 120 130 179 190 212 232 238 243 252 276 286 288 297 303 322 340 344 399 419 439 449 451 456 462
b 88 23 63 70 71 99 120 130 179 190 212 232 238 243 252 276 288 297 303 322 340 344 399 419 421 439 449 451 456 462
b 89 14 63 71 179 190 276 297 421 451
b 90 14 71 179 190 276 326 421 451
b 91 14 179 276 326 437
b 92 276 326 362 437
b 93 14 190 326 408 451
b 94 326 375 408 451
b 95 23 70 71 99 120 130 168 212 232 238 243 252 276 288 289 303 322 340 344 345 399 419 421 439 449 451 456 462
b 96 23 70 71 96 99 120 130 168 212 232 238 243 252 276 288 289 303 322 340 344 345 399 419 421 439 449 451 462
b 97 96 99 151 168 212 289 322
b 98 96 99 151 168 233
b 99 96 168 169 233
b 100 23 51 70 71 96 99 120 130 168 232 238 243 252 276 288 289 303 340 344 345 399 419 421 439 449 451 462
b 101 23 51 70 71 75 96 99 130 168 232 238 243 252 276 288 289 303 340 344 345 399 419 421 439 449 451 462
b 102 1 23 51 70 71 75 96 98 130 168 223 232 238 243 276 288 289 303 328 344 345 397 399 419 421 439 449 451 462
b 103 1 23 51 58 70 71 75 96 98 130 168 223 232 238 243 276 288 289 303 328 344 345 397 399 419 421 449 451 462
b 104 1 51 58 71 75 96 98 130 155 168 223 232 238 243 276 288 289 303 328 344 345 368 397 399 419 421 449 451 462
b 105 1 51 58 66 71 75 96 98 130 155 168 232 238 243 276 288 289 303 328 344 345 368 397 399 419 421 449 451 462
b 106 1 27 51 58 66 71 75 96 98 130 155 168 232 238 243 276 288 289 303 328 344 345 368 397 419 421 449 451 462
b 107 1 27 51 66 71 75 96 98 110 130 155 168 232 238 276 289 344 345 368 397 419 421 449 451 462
b 108 1 22 27 51 71 75 96 98 110 130 155 168 232 238 276 289 344 345 368 397 419 421 449 451 462
b 109 1 22 27 51 71 75 78 96 110 130 155 168 232 238 276 289 290 344 345 368 397 419 421 423 449 451 462
b 110 1 22 27 51 71 75 78 96 110 130 155 168 226 232 238 276 289 290 331 344 345 361 368 397 421 423 449 451 462
b 111 1 22 27 51 71 75 78 110 130 155 168 226 232 238 276 289 290 319 331 344 345 361 368 397 421 423 449 451 462
b 112 1 20 22 27 51 71 75 78 110 130 155 168 226 232 238 276 289 290 319 331 344 361 368 397 421 451 462
b 113 20 78 130 226 231 344 361
b 114 20 231 284 344 361
b 115 20 177 284 361
b 116 1 2 20 22 27 51 71 75 78 110 155 168 226 232 238 262 276 289 290 319 331 344 361 368 397 421 451 462
b 117 1 2 20 22 27 51 71 75 110 155 168 226 232 238 262 276 289 290 306 319 331 361 368 397 451 462
b 118 1 2 20 22 27 33 51 71 110 155 226 238 262 276 289 290 306 319 331 361 368 397 451 462
b 119 2 33 51 80 110 155 226 397
b 120 2 33 51 80 128 155 397
b 121 33 51 80 128 434
b 122 33 80 114 434
b 123 2 80 128 155 263
b 124 53 128 155 263
b 125 33 226 238 262 289 290 306 331 361 368 458 462
b 126 25 238 262 306 331 361 458
b 127 25 306 331 429 458
b 128 12 25 429 458
b 129 33 289 290 306 309 368 458
b 130 33 256 290 306 309 368 458
b 131 256 290 309 368 398
b 132 309 368 374 398
b 133 72 256 306 309 458
b 134 28 72 309 458
b 135 1 2 20 22 27 33 51 71 110 155 239 262 276 306 319 331 361 451
b 136 1 2 20 22 27 71 110 136 155 239 262 319 331
b 137 2 20 71 136 155 213 239
b 138 2 155 213 239 413
b 139 2 213 354 413
b 140 22 27 71 110 136 239 262 319 331 450
b 141 22 55 110 136 239 331 450
b 142 22 55 136 222 450
b 143 22 136 172 222
b 144 27 136 319 396 450
b 145 316 319 396 450
b 146 22 33 51 71 142 155 239 306 319 361 451
b 147 33 71 142 155 239 275 306 319 451
b 148 33 71 142 155 239 264 275 306
b 149 71 142 258 264 275
b 150 21 71 258 275
b 151 33 239 264 275 318
b 152 33 50 264 318
b 153 20 75 131 168 232 262 290 306 319 331 368
b 154 75 131 168 262 290 306 319 331 368 447
b 155 131 168 262 290 306 420 447
b 156 131 259 262 420 447
b 157 115 259 262 447
b 158 131 331 368 445 447
b 159 282 331 445 447
b 160 2 20 34 75 78 262 344 368 421
b 161 2 20 34 75 78 304 344 368
b 162 20 34 197 304 344
b 163 20 181 197 304
b 164 34 75 78 304 422
b 165 34 75 382 422
b 166 27 210 319 423 449
b 167 27 173 210 449
b 168 75 78 96 108 226 290 331 344 345 361 423
b 169 52 75 78 108 226 331 344 345 361 423
b 170 52 78 108 218 226 331 345
b 171 52 108 218 226 280
b 172 108 165 218 280
b 173 52 75 108 273 361
b 174 52 251 273 361
b 175 22 51 78 81 110 290 419 423 449
b 176 22 78 81 110 241 419 423 449
b 177 22 81 88 110 241 419 423
b 178 22 88 241 314 423
b 179 113 241 314 423
b 180 81 88 110 241 391
b 181 81 241 270 391
b 182 1 27 58 66 243 288 303 328 342
b 183 1 58 66 243 288 328 342 392
b 184 58 66 342 392 407
b 185 58 163 392 407
b 186 1 183 328 342 392
b 187 1 140 183 342
b 188 58 66 98 117 288 397 399
b 189 58 66 117 397 410
b 190 58 117 381 410
b 191 1 23 70 98 223 328 397 439 441
b 192 223 234 328 397 441
b 193 112 223 234 397
b 194 1 70 98 223 265 439 441
b 195 98 223 265 347 441
b 196 90 98 223 347
b 197 75 96 99 252 311 340 345 451
b 198 96 99 149 311 340
b 199 96 103 149 311
b 200 252 311 340 345 427
b 201 311 345 355 427
b 202 168 212 252 272 289 322 345 421 456
b 203 272 289 320 322 345 421 456
b 204 42 272 289 320 421
b 205 39 42 272 320
b 206 168 252 272 301 421
b 207 252 272 278 301
b 208 63 120 132 190 286 419 451
b 209 132 190 390 419 451
b 210 351 390 419 451
b 211 59 120 130 138 179 187 215 276 419 449
b 212 59 89 120 138 179 187 215 276 419
b 213 89 179 187 365 419
b 214 121 187 365 419
b 215 59 89 120 187 215 276 455
b 216 89 120 187 370 455
b 217 89 126 370 455
b 218 130 164 180 206 238 344 350 419 428 462
b 219 130 164 180 206 238 337 350 428 462
b 220 220 238 337 350 428
b 221 107 220 337 428
b 222 130 164 180 310 337 350 462
b 223 310 337 350 442 462
b 224 192 310 337 442
b 225 57 164 206 232 238 436 462
b 226 49 57 232 238
b 227 57 164 206 426 462
b 228 130 162 303 343 428
b 229 130 162 194 303
b 230 205 232 303 343 436
b 231 205 232 303 418
b 232 13 59 180 300 352
b 233 8 13 59 300
b 234 60 70 129 135 138 164 217 221 225 237 242 243 252 257 277 279 302 305 307 340 341 371 376 414 425 431 433 456
b 235 102 203 221 237 305
b 236 102 217 221 225 237 305 376
b 237 217 221 225 237 305 376
b 238 189 341 371 425
b 239 203 221 305 444
b 240 217 279 302 431 460
b 241 279 380 431 460
b 242 60 69 70 129 135 138 164 217 225 237 242 243 252 257 277 279 302 305 307 340 341 371 414 425 431 433 456
b 243 68 69 70 129 135 138 164 217 237 242 243 252 257 277 279 302 307 340 341 371 414 425 431 433 456
b 244 56 68 69 70 135 138 164 237 242 243 252 257 279 302 307 340 341 371 414 431 433 456
b 245 47 68 69 70 138 164 242 243 252 257 279 302 340 341 371 414 431 433 456
b 246 32 68 69 138 242 252 257 279 302 340 341 371 414 431 433 456
b 247 31 32 68 69 138 242 257 279 302 341 371 414 431 433 456
b 248 16 69 138 257 341 371 414 431 433 456
b 249 15 69 138 341 371 414 433
b 250 15 138 292 371 433
b 251 15 138 224 292
b 252 31 32 68 122 302
b 253 31 38 122 302
b 254 32 214 242 456
b 255 47 70 235 243
b 256 68 129 170 217 279 425
b 257 129 170 175 279
b 258 7 68 170 425
b 259 60 69 225 243 308
b 260 225 243 260 308
b 261 97 439 456
b 262 327 426 462
b 263 207 405 411
b 264 143 404 435
b 265 118 397 441
b 266 161 382 422
b 267 54 381 410
b 268 380 400 460
b 269 250 375 408
b 270 374 383 398
b 271 360 368 447
b 272 29 364 424
b 273 191 362 437
b 274 355 427 438
b 275 146 354 413
b 276 43 351 390
b 277 296 350 428
b 278 211 342 392
b 279 9 338 356
b 280 100 336 367
b 281 244 320 345
b 282 30 316 396
b 283 182 311 340
b 284 306 315 458
b 285 40 303 343
b 286 184 297 414
b 287 119 290 420
b 288 133 282 445
b 289 219 279 302
b 290 278 301 412
b 291 274 276 455
b 292 271 324 461
b 293 270 363 391
b 294 26 269 277
b 295 116 260 308
b 296 79 256 309
b 297 252 385 421
b 298 65 251 273
b 299 148 245 373
b 300 239 264 406
b 301 238 337 372
b 302 237 305 323
b 303 10 236 425
b 304 232 281 436
b 305 229 430 457
b 306 82 226 231
b 307 224 292 452
b 308 92 223 328
b 309 217 431 459
b 310 214 242 402
b 311 86 212 215
b 312 198 205 418
b 313 91 203 444
b 314 196 267 312
b 315 195 249 295
b 316 4 192 442
b 317 190 339 451
b 318 189 341 346
b 319 186 395 415
b 320 11 181 197
b 321 174 179 187
b 322 95 178 433
b 323 177 284 359
b 324 150 176 348
b 325 154 173 210
b 326 74 172 222
b 327 67 171 225
b 328 85 170 175
b 329 169 233 321
b 330 124 168 272
b 331 167 299 379
b 332 165 201 280
b 333 164 243 317
b 334 163 230 407
b 335 162 194 266
b 336 151 289 394
b 337 145 366 443
b 338 48 144 332
b 339 140 183 228
b 340 138 293 403
b 341 136 185 450
b 342 135 156 286
b 343 131 291 331
b 344 130 310 329
b 345 129 157 399
b 346 126 370 440
b 347 125 134 330
b 348 19 121 365
b 349 120 132 334
b 350 104 115 259
b 351 41 114 434
b 352 113 255 314
b 353 36 112 234
b 354 46 111 166
b 355 109 376 377
b 356 108 209 361
b 357 73 107 220
b 358 103 149 357
b 359 102 221 349
b 360 98 117 227
b 361 93 96 99
b 362 90 158 347
b 363 89 94 419
b 364 88 153 423
b 365 84 353 389
b 366 64 83 313
b 367 81 298 449
b 368 80 106 128
b 369 78 216 218
b 370 77 147 288
b 371 76 401 416
b 372 71 213 358
b 373 69 70 432
b 374 63 139 322
b 375 60 200 240
b 376 59 180 325
b 377 58 66 261
b 378 56 294 307
b 379 55 61 110
b 380 53 152 263
b 381 52 75 101
b 382 51 142 254
b 383 50 318 384
b 384 49 57 285
b 385 47 235 453
b 386 44 246 369
b 387 39 42 87
b 388 38 122 448
b 389 35 386 409
b 390 34 127 304
b 391 33 275 387
b 392 31 32 159
b 393 28 72 393
b 394 27 141 319
b 395 25 202 262
b 396 24 204 333
b 397 23 45 206
b 398 22 241 454
b 399 21 258 335
b 400 20 344 446
b 401 18 193 247
b 402 17 199 417
b 403 16 257 378
b 404 15 137 371
b 405 14 287 326
b 406 13 268 352
b 407 12 253 429
b 408 8 105 300
b 409 7 68 160
b 410 6 208 388
b 411 5 123 188
b 412 3 62 283
b 413 2 155 248
b 414 1 37 265
1 412
1 2
2 406
2 397
2 374
2 333
2 311
2 261
2 81
2 4
2 3
4 5
5 80
5 75
5 6
6 8
6 7
8 10
8 9
10 11
11 18
11 12
12 340
12 13
12 16
13 389
13 14
14 15
15 354
16 17
17 279
18 370
18 19
19 286
19 20
20 21
21 411
21 71
21 22
22 69
22 23
23 68
23 24
24 67
24 25
25 303
25 26
26 294
26 27
27 28
28 292
28 29
29 33
29 34
29 30
30 31
31 32
32 338
33 355
34 35
35 272
35 62
35 36
36 38
36 37
37 410
38 337
38 39
39 375
39 40
40 41
41 371
41 44
41 42
42 43
43 299
44 46
44 45
45 331
46 319
46 47
47 48
48 50
48 49
49 264
50 322
50 51
51 52
52 342
52 53
53 345
53 54
54 302
54 289
54 55
55 56
56 57
57 58
58 59
59 60
60 61
61 327
61 234
62 305
62 63
62 65
63 64
64 263
65 66
66 366
67 315
68 365
69 70
70 314
71 324
71 72
72 74
72 73
73 347
74 396
75 402
75 78
75 76
76 77
77 386
78 79
79 280
80 401
81 376
81 232
81 82
82 304
82 285
82 230
82 228
82 83
83 225
83 84
84 218
84 85
85 211
85 86
86 87
87 317
87 208
87 88
88 297
88 89
88 95
89 90
90 405
90 93
90 91
91 92
92 273
93 94
94 269
95 202
95 96
96 361
96 100
96 97
97 336
97 98
98 99
99 329
100 101
101 197
101 102
102 308
102 191
102 103
103 104
104 105
105 377
105 188
105 106
106 107
106 182
107 108
108 109
109 175
109 110
110 168
110 111
111 394
111 112
111 166
112 400
112 116
112 113
113 306
113 114
114 115
115 323
116 413
116 160
116 117
117 153
117 118
118 125
118 135
118 119
119 120
120 368
120 121
120 123
121 122
122 351
123 124
124 380
125 284
125 129
125 126
126 395
126 127
127 128
128 407
129 130
130 296
130 133
130 131
131 132
132 270
133 134
134 393
135 146
135 136
136 137
136 140
137 372
137 138
138 139
139 275
140 341
140 144
140 141
141 379
141 142
142 143
143 326
144 145
145 282
146 382
146 147
147 391
147 148
148 300
148 151
148 149
149 150
150 399
151 152
152 383
153 343
153 154
154 271
154 155
154 158
155 287
155 156
156 157
157 350
158 159
159 288
160 161
161 390
161 162
161 164
162 163
163 320
164 165
165 266
166 167
167 325
168 356
168 169
169 381
169 173
169 170
170 369
170 171
171 172
172 332
173 174
174 298
175 367
175 176
176 398
176 177
177 364
177 178
177 180
178 179
179 352
180 181
181 293
182 183
183 278
183 184
183 186
184 185
185 334
186 187
187 339
188 360
188 189
189 190
190 267
191 265
191 192
191 194
192 193
193 353
194 414
194 195
195 196
196 362
197 283
197 200
197 198
198 199
199 358
200 201
201 274
202 330
202 203
202 206
203 281
203 204
204 205
205 387
206 207
207 290
208 349
208 209
209 210
210 276
211 321
211 212
212 363
212 215
212 213
213 214
214 348
215 291
215 216
216 217
217 346
218 277
218 219
219 301
219 220
219 222
220 221
221 357
222 344
222 223
223 224
224 316
225 227
225 226
226 384
227 262
228 229
229 335
230 231
231 312
232 233
233 408
234 309
234 242
234 240
234 238
234 237
235 359
235 239
235 236
236 237
238 318
239 313
240 241
241 268
242 373
242 259
242 243
243 256
243 244
244 378
244 245
245 255
245 246
246 247
247 392
247 252
247 254
247 248
248 403
248 249
249 404
249 250
250 251
251 307
252 253
253 388
254 310
255 385
256 258
256 257
257 328
258 409
259 260
260 295
